K = 3;
V = 20;
edge_weight = [|0, -1, 65, -1, -1, -1, -1, -1, -1, -1, -1, -1, -1, 14, -1, -1, -1, -1, -1, 39|
-1, 0, -1, -1, 32, -1, 37, -1, -1, -1, 32, -1, 30, -1, -1, -1, -1, -1, 49, -1|
-1, -1, 0, -1, 13, -1, -1, 13, -1, -1, -1, 40, -1, 37, -1, -1, -1, 63, 75, -1|
5, 79, 84, 0, -1, -1, 22, -1, -1, -1, -1, 65, -1, -1, -1, -1, -1, 26, -1, 79|
-1, 53, -1, 59, 0, -1, -1, -1, -1, -1, 78, 35, 9, -1, -1, -1, -1, -1, -1, -1|
-1, -1, -1, -1, -1, 0, -1, -1, 3, -1, 20, 68, 39, -1, 40, -1, -1, -1, -1, -1|
-1, -1, -1, -1, -1, -1, 0, 92, 60, -1, -1, -1, -1, 7, -1, -1, -1, -1, -1, 37|
-1, 89, -1, -1, -1, -1, -1, 0, -1, -1, -1, -1, 76, -1, -1, -1, 84, -1, -1, -1|
-1, 18, -1, -1, -1, 7, -1, -1, 0, -1, -1, -1, -1, -1, -1, -1, -1, -1, -1, -1|
-1, -1, -1, -1, -1, -1, -1, -1, -1, 0, -1, -1, -1, -1, 91, 44, 85, -1, -1, -1|
-1, -1, -1, -1, -1, -1, -1, -1, 96, -1, 0, -1, -1, 88, 56, 47, -1, -1, -1, -1|
-1, 13, 52, -1, 30, -1, -1, -1, -1, -1, -1, 0, -1, 58, -1, -1, -1, -1, 1, -1|
3, 97, -1, -1, -1, -1, 97, 29, -1, -1, 75, 59, 0, -1, -1, -1, -1, -1, 90, -1|
-1, -1, -1, -1, -1, -1, -1, -1, -1, 24, -1, -1, 60, 0, -1, -1, -1, -1, 93, -1|
-1, 91, -1, 36, 90, -1, -1, -1, 30, 60, 3, -1, -1, -1, 0, -1, -1, -1, -1, 17|
12, -1, -1, -1, -1, 33, 64, 71, -1, -1, -1, -1, -1, -1, -1, 0, 9, -1, -1, 98|
-1, -1, -1, -1, 87, 15, -1, 33, -1, 80, 28, -1, 43, 15, 29, -1, 0, -1, -1, -1|
-1, -1, -1, -1, 95, 60, -1, -1, 75, -1, -1, 81, -1, -1, -1, -1, -1, 0, -1, 53|
88, 17, 12, -1, -1, -1, 28, -1, 98, 61, -1, 52, -1, -1, -1, 46, -1, -1, 0, -1|
-1, -1, -1, -1, -1, 49, -1, -1, -1, -1, 34, -1, 92, -1, -1, -1, 100, -1, -1, 0|];
